100
128
12
13
41
6
15
46
61
64
1
46
3
39
48
42
50
64
46
64
47
5
2
42
2
56
9
2
5
8
24
54
2
2
61
60
37
1
6
24
19
27
14
25
36
23
1
26
25
2
34
34
22
20
26
1
23
32
31
40
6
20
31
9
23
29
1
45
20
23
6
5
3
2
27
49
38
59
2
44
26
50
35
4
52
56
45
1
2
4
61
45
9
15
4
27
1
31
31
11
27
3